\* PlanoExecucao *\
Maximize
OBJ: 16.05 estoqueRetail_10_37_2 + 47.77 estoqueRetail_10_38_3
 + 8.58 estoqueRetail_10_39_4 + 92.63 estoqueRetail_1_1_2
 + 60.27 estoqueRetail_1_2_3 + 66.7 estoqueRetail_1_3_4
 + 30.67 estoqueRetail_2_5_2 + 97.41 estoqueRetail_2_6_3
 + 89.5 estoqueRetail_2_7_4 + 26.26 estoqueRetail_3_10_3
 + 28.84 estoqueRetail_3_11_4 + 98.83 estoqueRetail_3_9_2
 + 48.23 estoqueRetail_4_13_2 + 10.91 estoqueRetail_4_14_3
 + 46.03 estoqueRetail_4_15_4 + 64.24 estoqueRetail_5_17_2
 + 53.71 estoqueRetail_5_18_3 + 6.28 estoqueRetail_5_19_4
 + 35.32 estoqueRetail_6_21_2 + 12.85 estoqueRetail_6_22_3
 + 2.66 estoqueRetail_6_23_4 + 71.08 estoqueRetail_7_25_2
 + 17.78 estoqueRetail_7_26_3 + 38.69 estoqueRetail_7_27_4
 + 106.25 estoqueRetail_8_29_2 + 126.06 estoqueRetail_8_30_3
 + 140.93 estoqueRetail_8_31_4 + 115.09 estoqueRetail_9_33_2
 + 63.54 estoqueRetail_9_34_3 + 73.71 estoqueRetail_9_35_4
 - 8 lineaEstoque_1_10_1 - 6 lineaEstoque_1_10_2 - 4 lineaEstoque_1_10_3
 - 2 lineaEstoque_1_10_4 - 8 lineaEstoque_1_1_1 - 6 lineaEstoque_1_1_2
 - 4 lineaEstoque_1_1_3 - 2 lineaEstoque_1_1_4 - 8 lineaEstoque_1_2_1
 - 6 lineaEstoque_1_2_2 - 4 lineaEstoque_1_2_3 - 2 lineaEstoque_1_2_4
 - 8 lineaEstoque_2_3_1 - 6 lineaEstoque_2_3_2 - 4 lineaEstoque_2_3_3
 - 2 lineaEstoque_2_3_4 - 8 lineaEstoque_2_4_1 - 6 lineaEstoque_2_4_2
 - 4 lineaEstoque_2_4_3 - 2 lineaEstoque_2_4_4 - 8 lineaEstoque_3_4_1
 - 6 lineaEstoque_3_4_2 - 4 lineaEstoque_3_4_3 - 2 lineaEstoque_3_4_4
 - 8 lineaEstoque_3_5_1 - 6 lineaEstoque_3_5_2 - 4 lineaEstoque_3_5_3
 - 2 lineaEstoque_3_5_4 - 8 lineaEstoque_3_6_1 - 6 lineaEstoque_3_6_2
 - 4 lineaEstoque_3_6_3 - 2 lineaEstoque_3_6_4 - 8 lineaEstoque_4_6_1
 - 6 lineaEstoque_4_6_2 - 4 lineaEstoque_4_6_3 - 2 lineaEstoque_4_6_4
 - 8 lineaEstoque_4_7_1 - 6 lineaEstoque_4_7_2 - 4 lineaEstoque_4_7_3
 - 2 lineaEstoque_4_7_4 - 8 lineaEstoque_5_7_1 - 6 lineaEstoque_5_7_2
 - 4 lineaEstoque_5_7_3 - 2 lineaEstoque_5_7_4 - 8 lineaEstoque_5_8_1
 - 6 lineaEstoque_5_8_2 - 4 lineaEstoque_5_8_3 - 2 lineaEstoque_5_8_4
 - 8 lineaEstoque_6_9_1 - 6 lineaEstoque_6_9_2 - 4 lineaEstoque_6_9_3
 - 2 lineaEstoque_6_9_4 + 57.72 lineaRetail_1_0_1_1
 + 86.63 lineaRetail_1_1_1_2 + 56.27 lineaRetail_1_2_1_3
 + 64.7 lineaRetail_1_3_1_4 + 121.69 lineaRetail_1_4_2_1
 + 24.67 lineaRetail_1_5_2_2 + 93.41 lineaRetail_1_6_2_3
 + 87.5 lineaRetail_1_7_2_4 + 22.26 lineaRetail_2_10_3_3
 + 26.84 lineaRetail_2_11_3_4 + 55.04 lineaRetail_2_12_4_1
 + 42.23 lineaRetail_2_14_4_2 + 6.91 lineaRetail_2_16_4_3
 + 44.03 lineaRetail_2_18_4_4 + 79.74 lineaRetail_2_8_3_1
 + 92.83 lineaRetail_2_9_3_2 + 55.04 lineaRetail_3_13_4_1
 + 42.23 lineaRetail_3_15_4_2 + 6.91 lineaRetail_3_17_4_3
 + 44.03 lineaRetail_3_19_4_4 + 63.8 lineaRetail_3_20_5_1
 + 58.24 lineaRetail_3_21_5_2 + 49.71 lineaRetail_3_22_5_3
 + 4.28 lineaRetail_3_23_5_4 + 59.5 lineaRetail_3_24_6_1
 + 29.32 lineaRetail_3_26_6_2 + 8.85 lineaRetail_3_28_6_3
 + 0.66 lineaRetail_3_30_6_4 + 59.5 lineaRetail_4_25_6_1
 + 29.32 lineaRetail_4_27_6_2 + 8.85 lineaRetail_4_29_6_3
 + 0.66 lineaRetail_4_31_6_4 + 96.76 lineaRetail_4_32_7_1
 + 65.08 lineaRetail_4_34_7_2 + 13.78 lineaRetail_4_36_7_3
 + 36.69 lineaRetail_4_38_7_4 + 96.76 lineaRetail_5_33_7_1
 + 65.08 lineaRetail_5_35_7_2 + 13.78 lineaRetail_5_37_7_3
 + 36.69 lineaRetail_5_39_7_4 - 20000 linhe_ativacao_1
 - 15000 linhe_ativacao_2 - 25000 linhe_ativacao_3 - 13000 linhe_ativacao_4
 - 20000 linhe_ativacao_5 - 17000 linhe_ativacao_6
 + 60434.55 satifacao_produto10_retail36_mes1
 + 60434.55 satifacao_produto10_retail37_mes2
 + 60434.55 satifacao_produto10_retail38_mes3
 + 60434.55 satifacao_produto10_retail39_mes4
 + 60434.55 satifacao_produto1_retail0_mes1
 + 60434.55 satifacao_produto1_retail1_mes2
 + 60434.55 satifacao_produto1_retail2_mes3
 + 60434.55 satifacao_produto1_retail3_mes4
 + 60434.55 satifacao_produto2_retail4_mes1
 + 60434.55 satifacao_produto2_retail5_mes2
 + 60434.55 satifacao_produto2_retail6_mes3
 + 60434.55 satifacao_produto2_retail7_mes4
 + 60434.55 satifacao_produto3_retail10_mes3
 + 60434.55 satifacao_produto3_retail11_mes4
 + 60434.55 satifacao_produto3_retail8_mes1
 + 60434.55 satifacao_produto3_retail9_mes2
 + 60434.55 satifacao_produto4_retail12_mes1
 + 60434.55 satifacao_produto4_retail13_mes2
 + 60434.55 satifacao_produto4_retail14_mes3
 + 60434.55 satifacao_produto4_retail15_mes4
 + 60434.55 satifacao_produto5_retail16_mes1
 + 60434.55 satifacao_produto5_retail17_mes2
 + 60434.55 satifacao_produto5_retail18_mes3
 + 60434.55 satifacao_produto5_retail19_mes4
 + 60434.55 satifacao_produto6_retail20_mes1
 + 60434.55 satifacao_produto6_retail21_mes2
 + 60434.55 satifacao_produto6_retail22_mes3
 + 60434.55 satifacao_produto6_retail23_mes4
 + 60434.55 satifacao_produto7_retail24_mes1
 + 60434.55 satifacao_produto7_retail25_mes2
 + 60434.55 satifacao_produto7_retail26_mes3
 + 60434.55 satifacao_produto7_retail27_mes4
 + 60434.55 satifacao_produto8_retail28_mes1
 + 60434.55 satifacao_produto8_retail29_mes2
 + 60434.55 satifacao_produto8_retail30_mes3
 + 60434.55 satifacao_produto8_retail31_mes4
 + 60434.55 satifacao_produto9_retail32_mes1
 + 60434.55 satifacao_produto9_retail33_mes2
 + 60434.55 satifacao_produto9_retail34_mes3
 + 60434.55 satifacao_produto9_retail35_mes4
Subject To
_C1: lineaRetail_1_0_1_1 <= 285
_C10: estoqueRetail_1_3_4 + lineaRetail_1_3_1_4 <= 292
_C100: estoqueRetail_10_39_4 <= 433
_C101: - estoqueRetail_10_39_4 + 435 satifacao_produto10_retail39_mes4 <= 305
_C102: estoqueRetail_10_39_4 - 435 satifacao_produto10_retail39_mes4 <= 130
_C103: 0.0666666666667 lineaEstoque_1_10_1
 + 0.0520833333333 lineaEstoque_1_1_1 + 0.0196078431373 lineaEstoque_1_2_1
 + 0.0520833333333 lineaRetail_1_0_1_1 + 0.0196078431373 lineaRetail_1_4_2_1
 <= 180
_C104: 0.0666666666667 lineaEstoque_1_10_2
 + 0.0520833333333 lineaEstoque_1_1_2 + 0.0196078431373 lineaEstoque_1_2_2
 + 0.0520833333333 lineaRetail_1_1_1_2 + 0.0196078431373 lineaRetail_1_5_2_2
 <= 180
_C105: 0.0666666666667 lineaEstoque_1_10_3
 + 0.0520833333333 lineaEstoque_1_1_3 + 0.0196078431373 lineaEstoque_1_2_3
 + 0.0520833333333 lineaRetail_1_2_1_3 + 0.0196078431373 lineaRetail_1_6_2_3
 <= 180
_C106: 0.0666666666667 lineaEstoque_1_10_4
 + 0.0520833333333 lineaEstoque_1_1_4 + 0.0196078431373 lineaEstoque_1_2_4
 + 0.0520833333333 lineaRetail_1_3_1_4 + 0.0196078431373 lineaRetail_1_7_2_4
 <= 180
_C107: 0.0641025641026 lineaEstoque_2_3_1 + 0.0225225225225 lineaEstoque_2_4_1
 + 0.0225225225225 lineaRetail_2_12_4_1 + 0.0641025641026 lineaRetail_2_8_3_1
 <= 130
_C108: 0.0641025641026 lineaEstoque_2_3_2 + 0.0225225225225 lineaEstoque_2_4_2
 + 0.0225225225225 lineaRetail_2_14_4_2 + 0.0641025641026 lineaRetail_2_9_3_2
 <= 130
_C109: 0.0641025641026 lineaEstoque_2_3_3 + 0.0225225225225 lineaEstoque_2_4_3
 + 0.0641025641026 lineaRetail_2_10_3_3 + 0.0225225225225 lineaRetail_2_16_4_3
 <= 130
_C11: - estoqueRetail_1_3_4 - lineaRetail_1_3_1_4
 + 435 satifacao_produto1_retail3_mes4 <= 347
_C110: 0.0641025641026 lineaEstoque_2_3_4 + 0.0225225225225 lineaEstoque_2_4_4
 + 0.0641025641026 lineaRetail_2_11_3_4 + 0.0225225225225 lineaRetail_2_18_4_4
 <= 130
_C111: 0.0406504065041 lineaEstoque_3_4_1 + 0.185185185185 lineaEstoque_3_5_1
 + 0.0520833333333 lineaEstoque_3_6_1 + 0.0406504065041 lineaRetail_3_13_4_1
 + 0.185185185185 lineaRetail_3_20_5_1 + 0.0520833333333 lineaRetail_3_24_6_1
 <= 200
_C112: 0.0406504065041 lineaEstoque_3_4_2 + 0.185185185185 lineaEstoque_3_5_2
 + 0.0520833333333 lineaEstoque_3_6_2 + 0.0406504065041 lineaRetail_3_15_4_2
 + 0.185185185185 lineaRetail_3_21_5_2 + 0.0520833333333 lineaRetail_3_26_6_2
 <= 200
_C113: 0.0406504065041 lineaEstoque_3_4_3 + 0.185185185185 lineaEstoque_3_5_3
 + 0.0520833333333 lineaEstoque_3_6_3 + 0.0406504065041 lineaRetail_3_17_4_3
 + 0.185185185185 lineaRetail_3_22_5_3 + 0.0520833333333 lineaRetail_3_28_6_3
 <= 200
_C114: 0.0406504065041 lineaEstoque_3_4_4 + 0.185185185185 lineaEstoque_3_5_4
 + 0.0520833333333 lineaEstoque_3_6_4 + 0.0406504065041 lineaRetail_3_19_4_4
 + 0.185185185185 lineaRetail_3_23_5_4 + 0.0520833333333 lineaRetail_3_30_6_4
 <= 200
_C115: 0.0980392156863 lineaEstoque_4_6_1 + 0.030303030303 lineaEstoque_4_7_1
 + 0.0980392156863 lineaRetail_4_25_6_1 + 0.030303030303 lineaRetail_4_32_7_1
 <= 130
_C116: 0.0980392156863 lineaEstoque_4_6_2 + 0.030303030303 lineaEstoque_4_7_2
 + 0.0980392156863 lineaRetail_4_27_6_2 + 0.030303030303 lineaRetail_4_34_7_2
 <= 130
_C117: 0.0980392156863 lineaEstoque_4_6_3 + 0.030303030303 lineaEstoque_4_7_3
 + 0.0980392156863 lineaRetail_4_29_6_3 + 0.030303030303 lineaRetail_4_36_7_3
 <= 130
_C118: 0.0980392156863 lineaEstoque_4_6_4 + 0.030303030303 lineaEstoque_4_7_4
 + 0.0980392156863 lineaRetail_4_31_6_4 + 0.030303030303 lineaRetail_4_38_7_4
 <= 130
_C119: 0.0833333333333 lineaEstoque_5_7_1 + 0.0228310502283 lineaEstoque_5_8_1
 + 0.0833333333333 lineaRetail_5_33_7_1 <= 190
_C12: estoqueRetail_1_3_4 + lineaRetail_1_3_1_4
 - 435 satifacao_produto1_retail3_mes4 <= 88
_C120: 0.0833333333333 lineaEstoque_5_7_2 + 0.0228310502283 lineaEstoque_5_8_2
 + 0.0833333333333 lineaRetail_5_35_7_2 <= 190
_C121: 0.0833333333333 lineaEstoque_5_7_3 + 0.0228310502283 lineaEstoque_5_8_3
 + 0.0833333333333 lineaRetail_5_37_7_3 <= 190
_C122: 0.0833333333333 lineaEstoque_5_7_4 + 0.0228310502283 lineaEstoque_5_8_4
 + 0.0833333333333 lineaRetail_5_39_7_4 <= 190
_C123: 0.0252525252525 lineaEstoque_6_9_1 <= 100
_C124: 0.0252525252525 lineaEstoque_6_9_2 <= 100
_C125: 0.0252525252525 lineaEstoque_6_9_3 <= 100
_C126: 0.0252525252525 lineaEstoque_6_9_4 <= 100
_C127: lineaEstoque_1_1_1 <= 2800
_C128: lineaEstoque_1_2_1 <= 2800
_C129: lineaEstoque_2_3_1 <= 2800
_C13: lineaRetail_1_4_2_1 <= 185
_C130: lineaEstoque_2_4_1 + lineaEstoque_3_4_1 <= 2800
_C131: lineaEstoque_3_5_1 <= 2800
_C132: lineaEstoque_3_6_1 + lineaEstoque_4_6_1 <= 2800
_C133: lineaEstoque_4_7_1 + lineaEstoque_5_7_1 <= 2800
_C134: lineaEstoque_5_8_1 <= 2800
_C135: lineaEstoque_6_9_1 <= 2800
_C136: lineaEstoque_1_10_1 <= 2800
_C137: estoqueRetail_1_1_2 - lineaEstoque_1_1_1 - lineaEstoque_1_1_2 <= 0
_C138: - estoqueRetail_1_1_2 + lineaEstoque_1_1_1 + lineaEstoque_1_1_2 <= 2800
_C139: estoqueRetail_2_5_2 - lineaEstoque_1_2_1 - lineaEstoque_1_2_2 <= 0
_C14: - lineaRetail_1_4_2_1 + 435 satifacao_produto2_retail4_mes1 <= 379
_C140: - estoqueRetail_2_5_2 + lineaEstoque_1_2_1 + lineaEstoque_1_2_2 <= 2800
_C141: estoqueRetail_3_9_2 - lineaEstoque_2_3_1 - lineaEstoque_2_3_2 <= 0
_C142: - estoqueRetail_3_9_2 + lineaEstoque_2_3_1 + lineaEstoque_2_3_2 <= 2800
_C143: estoqueRetail_4_13_2 - lineaEstoque_2_4_1 - lineaEstoque_2_4_2
 - lineaEstoque_3_4_1 - lineaEstoque_3_4_2 <= 0
_C144: - estoqueRetail_4_13_2 + lineaEstoque_2_4_1 + lineaEstoque_2_4_2
 + lineaEstoque_3_4_1 + lineaEstoque_3_4_2 <= 2800
_C145: estoqueRetail_5_17_2 - lineaEstoque_3_5_1 - lineaEstoque_3_5_2 <= 0
_C146: - estoqueRetail_5_17_2 + lineaEstoque_3_5_1 + lineaEstoque_3_5_2
 <= 2800
_C147: estoqueRetail_6_21_2 - lineaEstoque_3_6_1 - lineaEstoque_3_6_2
 - lineaEstoque_4_6_1 - lineaEstoque_4_6_2 <= 0
_C148: - estoqueRetail_6_21_2 + lineaEstoque_3_6_1 + lineaEstoque_3_6_2
 + lineaEstoque_4_6_1 + lineaEstoque_4_6_2 <= 2800
_C149: estoqueRetail_7_25_2 - lineaEstoque_4_7_1 - lineaEstoque_4_7_2
 - lineaEstoque_5_7_1 - lineaEstoque_5_7_2 <= 0
_C15: lineaRetail_1_4_2_1 - 435 satifacao_produto2_retail4_mes1 <= 56
_C150: - estoqueRetail_7_25_2 + lineaEstoque_4_7_1 + lineaEstoque_4_7_2
 + lineaEstoque_5_7_1 + lineaEstoque_5_7_2 <= 2800
_C151: estoqueRetail_8_29_2 - lineaEstoque_5_8_1 - lineaEstoque_5_8_2 <= 0
_C152: - estoqueRetail_8_29_2 + lineaEstoque_5_8_1 + lineaEstoque_5_8_2
 <= 2800
_C153: estoqueRetail_9_33_2 - lineaEstoque_6_9_1 - lineaEstoque_6_9_2 <= 0
_C154: - estoqueRetail_9_33_2 + lineaEstoque_6_9_1 + lineaEstoque_6_9_2
 <= 2800
_C155: estoqueRetail_10_37_2 - lineaEstoque_1_10_1 - lineaEstoque_1_10_2 <= 0
_C156: - estoqueRetail_10_37_2 + lineaEstoque_1_10_1 + lineaEstoque_1_10_2
 <= 2800
_C157: estoqueRetail_1_1_2 + estoqueRetail_1_2_3 - lineaEstoque_1_1_1
 - lineaEstoque_1_1_2 - lineaEstoque_1_1_3 <= 0
_C158: - estoqueRetail_1_1_2 - estoqueRetail_1_2_3 + lineaEstoque_1_1_1
 + lineaEstoque_1_1_2 + lineaEstoque_1_1_3 <= 2800
_C159: estoqueRetail_2_5_2 + estoqueRetail_2_6_3 - lineaEstoque_1_2_1
 - lineaEstoque_1_2_2 - lineaEstoque_1_2_3 <= 0
_C16: estoqueRetail_2_5_2 + lineaRetail_1_5_2_2 <= 161
_C160: - estoqueRetail_2_5_2 - estoqueRetail_2_6_3 + lineaEstoque_1_2_1
 + lineaEstoque_1_2_2 + lineaEstoque_1_2_3 <= 2800
_C161: estoqueRetail_3_10_3 + estoqueRetail_3_9_2 - lineaEstoque_2_3_1
 - lineaEstoque_2_3_2 - lineaEstoque_2_3_3 <= 0
_C162: - estoqueRetail_3_10_3 - estoqueRetail_3_9_2 + lineaEstoque_2_3_1
 + lineaEstoque_2_3_2 + lineaEstoque_2_3_3 <= 2800
_C163: estoqueRetail_4_13_2 + estoqueRetail_4_14_3 - lineaEstoque_2_4_1
 - lineaEstoque_2_4_2 - lineaEstoque_2_4_3 - lineaEstoque_3_4_1
 - lineaEstoque_3_4_2 - lineaEstoque_3_4_3 <= 0
_C164: - estoqueRetail_4_13_2 - estoqueRetail_4_14_3 + lineaEstoque_2_4_1
 + lineaEstoque_2_4_2 + lineaEstoque_2_4_3 + lineaEstoque_3_4_1
 + lineaEstoque_3_4_2 + lineaEstoque_3_4_3 <= 2800
_C165: estoqueRetail_5_17_2 + estoqueRetail_5_18_3 - lineaEstoque_3_5_1
 - lineaEstoque_3_5_2 - lineaEstoque_3_5_3 <= 0
_C166: - estoqueRetail_5_17_2 - estoqueRetail_5_18_3 + lineaEstoque_3_5_1
 + lineaEstoque_3_5_2 + lineaEstoque_3_5_3 <= 2800
_C167: estoqueRetail_6_21_2 + estoqueRetail_6_22_3 - lineaEstoque_3_6_1
 - lineaEstoque_3_6_2 - lineaEstoque_3_6_3 - lineaEstoque_4_6_1
 - lineaEstoque_4_6_2 - lineaEstoque_4_6_3 <= 0
_C168: - estoqueRetail_6_21_2 - estoqueRetail_6_22_3 + lineaEstoque_3_6_1
 + lineaEstoque_3_6_2 + lineaEstoque_3_6_3 + lineaEstoque_4_6_1
 + lineaEstoque_4_6_2 + lineaEstoque_4_6_3 <= 2800
_C169: estoqueRetail_7_25_2 + estoqueRetail_7_26_3 - lineaEstoque_4_7_1
 - lineaEstoque_4_7_2 - lineaEstoque_4_7_3 - lineaEstoque_5_7_1
 - lineaEstoque_5_7_2 - lineaEstoque_5_7_3 <= 0
_C17: - estoqueRetail_2_5_2 - lineaRetail_1_5_2_2
 + 435 satifacao_produto2_retail5_mes2 <= 387
_C170: - estoqueRetail_7_25_2 - estoqueRetail_7_26_3 + lineaEstoque_4_7_1
 + lineaEstoque_4_7_2 + lineaEstoque_4_7_3 + lineaEstoque_5_7_1
 + lineaEstoque_5_7_2 + lineaEstoque_5_7_3 <= 2800
_C171: estoqueRetail_8_29_2 + estoqueRetail_8_30_3 - lineaEstoque_5_8_1
 - lineaEstoque_5_8_2 - lineaEstoque_5_8_3 <= 0
_C172: - estoqueRetail_8_29_2 - estoqueRetail_8_30_3 + lineaEstoque_5_8_1
 + lineaEstoque_5_8_2 + lineaEstoque_5_8_3 <= 2800
_C173: estoqueRetail_9_33_2 + estoqueRetail_9_34_3 - lineaEstoque_6_9_1
 - lineaEstoque_6_9_2 - lineaEstoque_6_9_3 <= 0
_C174: - estoqueRetail_9_33_2 - estoqueRetail_9_34_3 + lineaEstoque_6_9_1
 + lineaEstoque_6_9_2 + lineaEstoque_6_9_3 <= 2800
_C175: estoqueRetail_10_37_2 + estoqueRetail_10_38_3 - lineaEstoque_1_10_1
 - lineaEstoque_1_10_2 - lineaEstoque_1_10_3 <= 0
_C176: - estoqueRetail_10_37_2 - estoqueRetail_10_38_3 + lineaEstoque_1_10_1
 + lineaEstoque_1_10_2 + lineaEstoque_1_10_3 <= 2800
_C177: estoqueRetail_1_1_2 + estoqueRetail_1_2_3 + estoqueRetail_1_3_4
 - lineaEstoque_1_1_1 - lineaEstoque_1_1_2 - lineaEstoque_1_1_3 = 0
_C178: estoqueRetail_2_5_2 + estoqueRetail_2_6_3 + estoqueRetail_2_7_4
 - lineaEstoque_1_2_1 - lineaEstoque_1_2_2 - lineaEstoque_1_2_3 = 0
_C179: estoqueRetail_3_10_3 + estoqueRetail_3_11_4 + estoqueRetail_3_9_2
 - lineaEstoque_2_3_1 - lineaEstoque_2_3_2 - lineaEstoque_2_3_3 = 0
_C18: estoqueRetail_2_5_2 + lineaRetail_1_5_2_2
 - 435 satifacao_produto2_retail5_mes2 <= 48
_C180: estoqueRetail_4_13_2 + estoqueRetail_4_14_3 + estoqueRetail_4_15_4
 - lineaEstoque_2_4_1 - lineaEstoque_2_4_2 - lineaEstoque_2_4_3
 - lineaEstoque_3_4_1 - lineaEstoque_3_4_2 - lineaEstoque_3_4_3 = 0
_C181: estoqueRetail_5_17_2 + estoqueRetail_5_18_3 + estoqueRetail_5_19_4
 - lineaEstoque_3_5_1 - lineaEstoque_3_5_2 - lineaEstoque_3_5_3 = 0
_C182: estoqueRetail_6_21_2 + estoqueRetail_6_22_3 + estoqueRetail_6_23_4
 - lineaEstoque_3_6_1 - lineaEstoque_3_6_2 - lineaEstoque_3_6_3
 - lineaEstoque_4_6_1 - lineaEstoque_4_6_2 - lineaEstoque_4_6_3 = 0
_C183: estoqueRetail_7_25_2 + estoqueRetail_7_26_3 + estoqueRetail_7_27_4
 - lineaEstoque_4_7_1 - lineaEstoque_4_7_2 - lineaEstoque_4_7_3
 - lineaEstoque_5_7_1 - lineaEstoque_5_7_2 - lineaEstoque_5_7_3 = 0
_C184: estoqueRetail_8_29_2 + estoqueRetail_8_30_3 + estoqueRetail_8_31_4
 - lineaEstoque_5_8_1 - lineaEstoque_5_8_2 - lineaEstoque_5_8_3 = 0
_C185: estoqueRetail_9_33_2 + estoqueRetail_9_34_3 + estoqueRetail_9_35_4
 - lineaEstoque_6_9_1 - lineaEstoque_6_9_2 - lineaEstoque_6_9_3 = 0
_C186: estoqueRetail_10_37_2 + estoqueRetail_10_38_3 + estoqueRetail_10_39_4
 - lineaEstoque_1_10_1 - lineaEstoque_1_10_2 - lineaEstoque_1_10_3 = 0
_C187: lineaRetail_1_0_1_1 + lineaRetail_1_1_1_2 + lineaRetail_1_2_1_3
 + lineaRetail_1_3_1_4 <= 978
_C188: lineaRetail_1_4_2_1 + lineaRetail_1_5_2_2 + lineaRetail_1_6_2_3
 + lineaRetail_1_7_2_4 <= 669
_C189: lineaRetail_2_10_3_3 + lineaRetail_2_11_3_4 + lineaRetail_2_8_3_1
 + lineaRetail_2_9_3_2 <= 418
_C19: estoqueRetail_2_6_3 + lineaRetail_1_6_2_3 <= 158
_C190: lineaRetail_2_12_4_1 + lineaRetail_2_14_4_2 + lineaRetail_2_16_4_3
 + lineaRetail_2_18_4_4 + lineaRetail_3_13_4_1 + lineaRetail_3_15_4_2
 + lineaRetail_3_17_4_3 + lineaRetail_3_19_4_4 <= 304
_C191: lineaRetail_3_20_5_1 + lineaRetail_3_21_5_2 + lineaRetail_3_22_5_3
 + lineaRetail_3_23_5_4 <= 338
_C192: lineaRetail_3_24_6_1 + lineaRetail_3_26_6_2 + lineaRetail_3_28_6_3
 + lineaRetail_3_30_6_4 + lineaRetail_4_25_6_1 + lineaRetail_4_27_6_2
 + lineaRetail_4_29_6_3 + lineaRetail_4_31_6_4 <= 1025
_C193: lineaRetail_4_32_7_1 + lineaRetail_4_34_7_2 + lineaRetail_4_36_7_3
 + lineaRetail_4_38_7_4 + lineaRetail_5_33_7_1 + lineaRetail_5_35_7_2
 + lineaRetail_5_37_7_3 + lineaRetail_5_39_7_4 <= 675
_C194: lineaEstoque_6_9_1 + lineaEstoque_6_9_2 + lineaEstoque_6_9_3
 + lineaEstoque_6_9_4 <= 522
_C195: - lineaEstoque_1_10_1 - lineaEstoque_1_10_2 - lineaEstoque_1_10_3
 - lineaEstoque_1_10_4 - lineaEstoque_1_1_1 - lineaEstoque_1_1_2
 - lineaEstoque_1_1_3 - lineaEstoque_1_1_4 - lineaEstoque_1_2_1
 - lineaEstoque_1_2_2 - lineaEstoque_1_2_3 - lineaEstoque_1_2_4
 - lineaRetail_1_0_1_1 - lineaRetail_1_1_1_2 - lineaRetail_1_2_1_3
 - lineaRetail_1_3_1_4 - lineaRetail_1_4_2_1 - lineaRetail_1_5_2_2
 - lineaRetail_1_6_2_3 - lineaRetail_1_7_2_4 + linhe_ativacao_1 <= 0
_C196: lineaEstoque_1_10_1 + lineaEstoque_1_10_2 + lineaEstoque_1_10_3
 + lineaEstoque_1_10_4 + lineaEstoque_1_1_1 + lineaEstoque_1_1_2
 + lineaEstoque_1_1_3 + lineaEstoque_1_1_4 + lineaEstoque_1_2_1
 + lineaEstoque_1_2_2 + lineaEstoque_1_2_3 + lineaEstoque_1_2_4
 + lineaRetail_1_0_1_1 + lineaRetail_1_1_1_2 + lineaRetail_1_2_1_3
 + lineaRetail_1_3_1_4 + lineaRetail_1_4_2_1 + lineaRetail_1_5_2_2
 + lineaRetail_1_6_2_3 + lineaRetail_1_7_2_4 - 3672000 linhe_ativacao_1 <= 0
_C197: - lineaEstoque_2_3_1 - lineaEstoque_2_3_2 - lineaEstoque_2_3_3
 - lineaEstoque_2_3_4 - lineaEstoque_2_4_1 - lineaEstoque_2_4_2
 - lineaEstoque_2_4_3 - lineaEstoque_2_4_4 - lineaRetail_2_10_3_3
 - lineaRetail_2_11_3_4 - lineaRetail_2_12_4_1 - lineaRetail_2_14_4_2
 - lineaRetail_2_16_4_3 - lineaRetail_2_18_4_4 - lineaRetail_2_8_3_1
 - lineaRetail_2_9_3_2 + linhe_ativacao_2 <= 0
_C198: lineaEstoque_2_3_1 + lineaEstoque_2_3_2 + lineaEstoque_2_3_3
 + lineaEstoque_2_3_4 + lineaEstoque_2_4_1 + lineaEstoque_2_4_2
 + lineaEstoque_2_4_3 + lineaEstoque_2_4_4 + lineaRetail_2_10_3_3
 + lineaRetail_2_11_3_4 + lineaRetail_2_12_4_1 + lineaRetail_2_14_4_2
 + lineaRetail_2_16_4_3 + lineaRetail_2_18_4_4 + lineaRetail_2_8_3_1
 + lineaRetail_2_9_3_2 - 2308800 linhe_ativacao_2 <= 0
_C199: - lineaEstoque_3_4_1 - lineaEstoque_3_4_2 - lineaEstoque_3_4_3
 - lineaEstoque_3_4_4 - lineaEstoque_3_5_1 - lineaEstoque_3_5_2
 - lineaEstoque_3_5_3 - lineaEstoque_3_5_4 - lineaEstoque_3_6_1
 - lineaEstoque_3_6_2 - lineaEstoque_3_6_3 - lineaEstoque_3_6_4
 - lineaRetail_3_13_4_1 - lineaRetail_3_15_4_2 - lineaRetail_3_17_4_3
 - lineaRetail_3_19_4_4 - lineaRetail_3_20_5_1 - lineaRetail_3_21_5_2
 - lineaRetail_3_22_5_3 - lineaRetail_3_23_5_4 - lineaRetail_3_24_6_1
 - lineaRetail_3_26_6_2 - lineaRetail_3_28_6_3 - lineaRetail_3_30_6_4
 + linhe_ativacao_3 <= 0
_C2: - lineaRetail_1_0_1_1 + 435 satifacao_produto1_retail0_mes1 <= 349
_C20: - estoqueRetail_2_6_3 - lineaRetail_1_6_2_3
 + 435 satifacao_produto2_retail6_mes3 <= 388
_C200: lineaEstoque_3_4_1 + lineaEstoque_3_4_2 + lineaEstoque_3_4_3
 + lineaEstoque_3_4_4 + lineaEstoque_3_5_1 + lineaEstoque_3_5_2
 + lineaEstoque_3_5_3 + lineaEstoque_3_5_4 + lineaEstoque_3_6_1
 + lineaEstoque_3_6_2 + lineaEstoque_3_6_3 + lineaEstoque_3_6_4
 + lineaRetail_3_13_4_1 + lineaRetail_3_15_4_2 + lineaRetail_3_17_4_3
 + lineaRetail_3_19_4_4 + lineaRetail_3_20_5_1 + lineaRetail_3_21_5_2
 + lineaRetail_3_22_5_3 + lineaRetail_3_23_5_4 + lineaRetail_3_24_6_1
 + lineaRetail_3_26_6_2 + lineaRetail_3_28_6_3 + lineaRetail_3_30_6_4
 - 1968000 linhe_ativacao_3 <= 0
_C201: - lineaEstoque_4_6_1 - lineaEstoque_4_6_2 - lineaEstoque_4_6_3
 - lineaEstoque_4_6_4 - lineaEstoque_4_7_1 - lineaEstoque_4_7_2
 - lineaEstoque_4_7_3 - lineaEstoque_4_7_4 - lineaRetail_4_25_6_1
 - lineaRetail_4_27_6_2 - lineaRetail_4_29_6_3 - lineaRetail_4_31_6_4
 - lineaRetail_4_32_7_1 - lineaRetail_4_34_7_2 - lineaRetail_4_36_7_3
 - lineaRetail_4_38_7_4 + linhe_ativacao_4 <= 0
_C202: lineaEstoque_4_6_1 + lineaEstoque_4_6_2 + lineaEstoque_4_6_3
 + lineaEstoque_4_6_4 + lineaEstoque_4_7_1 + lineaEstoque_4_7_2
 + lineaEstoque_4_7_3 + lineaEstoque_4_7_4 + lineaRetail_4_25_6_1
 + lineaRetail_4_27_6_2 + lineaRetail_4_29_6_3 + lineaRetail_4_31_6_4
 + lineaRetail_4_32_7_1 + lineaRetail_4_34_7_2 + lineaRetail_4_36_7_3
 + lineaRetail_4_38_7_4 - 1716000 linhe_ativacao_4 <= 0
_C203: - lineaEstoque_5_7_1 - lineaEstoque_5_7_2 - lineaEstoque_5_7_3
 - lineaEstoque_5_7_4 - lineaEstoque_5_8_1 - lineaEstoque_5_8_2
 - lineaEstoque_5_8_3 - lineaEstoque_5_8_4 - lineaRetail_5_33_7_1
 - lineaRetail_5_35_7_2 - lineaRetail_5_37_7_3 - lineaRetail_5_39_7_4
 + linhe_ativacao_5 <= 0
_C204: lineaEstoque_5_7_1 + lineaEstoque_5_7_2 + lineaEstoque_5_7_3
 + lineaEstoque_5_7_4 + lineaEstoque_5_8_1 + lineaEstoque_5_8_2
 + lineaEstoque_5_8_3 + lineaEstoque_5_8_4 + lineaRetail_5_33_7_1
 + lineaRetail_5_35_7_2 + lineaRetail_5_37_7_3 + lineaRetail_5_39_7_4
 - 3328800 linhe_ativacao_5 <= 0
_C205: - lineaEstoque_6_9_1 - lineaEstoque_6_9_2 - lineaEstoque_6_9_3
 - lineaEstoque_6_9_4 + linhe_ativacao_6 <= 0
_C206: lineaEstoque_6_9_1 + lineaEstoque_6_9_2 + lineaEstoque_6_9_3
 + lineaEstoque_6_9_4 - 1584000 linhe_ativacao_6 <= 0
_C21: estoqueRetail_2_6_3 + lineaRetail_1_6_2_3
 - 435 satifacao_produto2_retail6_mes3 <= 47
_C22: estoqueRetail_2_7_4 + lineaRetail_1_7_2_4 <= 165
_C23: - estoqueRetail_2_7_4 - lineaRetail_1_7_2_4
 + 435 satifacao_produto2_retail7_mes4 <= 385
_C24: estoqueRetail_2_7_4 + lineaRetail_1_7_2_4
 - 435 satifacao_produto2_retail7_mes4 <= 50
_C25: lineaRetail_2_8_3_1 <= 199
_C26: - lineaRetail_2_8_3_1 + 435 satifacao_produto3_retail8_mes1 <= 375
_C27: lineaRetail_2_8_3_1 - 435 satifacao_produto3_retail8_mes1 <= 60
_C28: estoqueRetail_3_9_2 + lineaRetail_2_9_3_2 <= 131
_C29: - estoqueRetail_3_9_2 - lineaRetail_2_9_3_2
 + 435 satifacao_produto3_retail9_mes2 <= 396
_C3: lineaRetail_1_0_1_1 - 435 satifacao_produto1_retail0_mes1 <= 86
_C30: estoqueRetail_3_9_2 + lineaRetail_2_9_3_2
 - 435 satifacao_produto3_retail9_mes2 <= 39
_C31: estoqueRetail_3_10_3 + lineaRetail_2_10_3_3 <= 22
_C32: - estoqueRetail_3_10_3 - lineaRetail_2_10_3_3
 + 435 satifacao_produto3_retail10_mes3 <= 428
_C33: estoqueRetail_3_10_3 + lineaRetail_2_10_3_3
 - 435 satifacao_produto3_retail10_mes3 <= 7
_C34: estoqueRetail_3_11_4 + lineaRetail_2_11_3_4 <= 66
_C35: - estoqueRetail_3_11_4 - lineaRetail_2_11_3_4
 + 435 satifacao_produto3_retail11_mes4 <= 415
_C36: estoqueRetail_3_11_4 + lineaRetail_2_11_3_4
 - 435 satifacao_produto3_retail11_mes4 <= 20
_C37: lineaRetail_2_12_4_1 <= 56
_C38: - lineaRetail_2_12_4_1 + 435 satifacao_produto4_retail12_mes1 <= 418
_C39: lineaRetail_2_12_4_1 - 435 satifacao_produto4_retail12_mes1 <= 17
_C4: estoqueRetail_1_1_2 + lineaRetail_1_1_1_2 <= 192
_C40: estoqueRetail_4_13_2 <= 81
_C41: - estoqueRetail_4_13_2 + 435 satifacao_produto4_retail13_mes2 <= 411
_C42: estoqueRetail_4_13_2 - 435 satifacao_produto4_retail13_mes2 <= 24
_C43: estoqueRetail_4_14_3 <= 86
_C44: - estoqueRetail_4_14_3 + 435 satifacao_produto4_retail14_mes3 <= 409
_C45: estoqueRetail_4_14_3 - 435 satifacao_produto4_retail14_mes3 <= 26
_C46: estoqueRetail_4_15_4 <= 81
_C47: - estoqueRetail_4_15_4 + 435 satifacao_produto4_retail15_mes4 <= 411
_C48: estoqueRetail_4_15_4 - 435 satifacao_produto4_retail15_mes4 <= 24
_C49: estoqueRetail_5_17_2 <= 68
_C5: - estoqueRetail_1_1_2 - lineaRetail_1_1_1_2
 + 435 satifacao_produto1_retail1_mes2 <= 377
_C50: - estoqueRetail_5_17_2 + 435 satifacao_produto5_retail17_mes2 <= 415
_C51: estoqueRetail_5_17_2 - 435 satifacao_produto5_retail17_mes2 <= 20
_C52: estoqueRetail_5_18_3 <= 92
_C53: - estoqueRetail_5_18_3 + 435 satifacao_produto5_retail18_mes3 <= 407
_C54: estoqueRetail_5_18_3 - 435 satifacao_produto5_retail18_mes3 <= 28
_C55: estoqueRetail_5_19_4 <= 80
_C56: - estoqueRetail_5_19_4 + 435 satifacao_produto5_retail19_mes4 <= 411
_C57: estoqueRetail_5_19_4 - 435 satifacao_produto5_retail19_mes4 <= 24
_C58: estoqueRetail_6_21_2 <= 294
_C59: - estoqueRetail_6_21_2 + 435 satifacao_produto6_retail21_mes2 <= 347
_C6: estoqueRetail_1_1_2 + lineaRetail_1_1_1_2
 - 435 satifacao_produto1_retail1_mes2 <= 58
_C60: estoqueRetail_6_21_2 - 435 satifacao_produto6_retail21_mes2 <= 88
_C61: estoqueRetail_6_22_3 <= 186
_C62: - estoqueRetail_6_22_3 + 435 satifacao_produto6_retail22_mes3 <= 379
_C63: estoqueRetail_6_22_3 - 435 satifacao_produto6_retail22_mes3 <= 56
_C64: estoqueRetail_6_23_4 <= 294
_C65: - estoqueRetail_6_23_4 + 435 satifacao_produto6_retail23_mes4 <= 347
_C66: estoqueRetail_6_23_4 - 435 satifacao_produto6_retail23_mes4 <= 88
_C67: estoqueRetail_7_25_2 <= 211
_C68: - estoqueRetail_7_25_2 + 435 satifacao_produto7_retail25_mes2 <= 372
_C69: estoqueRetail_7_25_2 - 435 satifacao_produto7_retail25_mes2 <= 63
_C7: estoqueRetail_1_2_3 + lineaRetail_1_2_1_3 <= 209
_C70: estoqueRetail_7_26_3 <= 156
_C71: - estoqueRetail_7_26_3 + 435 satifacao_produto7_retail26_mes3 <= 388
_C72: estoqueRetail_7_26_3 - 435 satifacao_produto7_retail26_mes3 <= 47
_C73: estoqueRetail_7_27_4 <= 152
_C74: - estoqueRetail_7_27_4 + 435 satifacao_produto7_retail27_mes4 <= 389
_C75: estoqueRetail_7_27_4 - 435 satifacao_produto7_retail27_mes4 <= 46
_C76: estoqueRetail_8_29_2 <= 172
_C77: - estoqueRetail_8_29_2 + 435 satifacao_produto8_retail29_mes2 <= 383
_C78: estoqueRetail_8_29_2 - 435 satifacao_produto8_retail29_mes2 <= 52
_C79: estoqueRetail_8_30_3 <= 387
_C8: - estoqueRetail_1_2_3 - lineaRetail_1_2_1_3
 + 435 satifacao_produto1_retail2_mes3 <= 372
_C80: - estoqueRetail_8_30_3 + 435 satifacao_produto8_retail30_mes3 <= 319
_C81: estoqueRetail_8_30_3 - 435 satifacao_produto8_retail30_mes3 <= 116
_C82: estoqueRetail_8_31_4 <= 260
_C83: - estoqueRetail_8_31_4 + 435 satifacao_produto8_retail31_mes4 <= 357
_C84: estoqueRetail_8_31_4 - 435 satifacao_produto8_retail31_mes4 <= 78
_C85: estoqueRetail_9_33_2 <= 141
_C86: - estoqueRetail_9_33_2 + 435 satifacao_produto9_retail33_mes2 <= 393
_C87: estoqueRetail_9_33_2 - 435 satifacao_produto9_retail33_mes2 <= 42
_C88: estoqueRetail_9_34_3 <= 53
_C89: - estoqueRetail_9_34_3 + 435 satifacao_produto9_retail34_mes3 <= 419
_C9: estoqueRetail_1_2_3 + lineaRetail_1_2_1_3
 - 435 satifacao_produto1_retail2_mes3 <= 63
_C90: estoqueRetail_9_34_3 - 435 satifacao_produto9_retail34_mes3 <= 16
_C91: estoqueRetail_9_35_4 <= 93
_C92: - estoqueRetail_9_35_4 + 435 satifacao_produto9_retail35_mes4 <= 407
_C93: estoqueRetail_9_35_4 - 435 satifacao_produto9_retail35_mes4 <= 28
_C94: estoqueRetail_10_37_2 <= 225
_C95: - estoqueRetail_10_37_2 + 435 satifacao_produto10_retail37_mes2 <= 367
_C96: estoqueRetail_10_37_2 - 435 satifacao_produto10_retail37_mes2 <= 68
_C97: estoqueRetail_10_38_3 <= 209
_C98: - estoqueRetail_10_38_3 + 435 satifacao_produto10_retail38_mes3 <= 372
_C99: estoqueRetail_10_38_3 - 435 satifacao_produto10_retail38_mes3 <= 63
Bounds
 0 <= estoqueRetail_10_37_2 <= 94472.4
 0 <= estoqueRetail_10_38_3 <= 94472.4
 0 <= estoqueRetail_10_39_4 <= 94472.4
 0 <= estoqueRetail_1_1_2 <= 94472.4
 0 <= estoqueRetail_1_2_3 <= 94472.4
 0 <= estoqueRetail_1_3_4 <= 94472.4
 0 <= estoqueRetail_2_5_2 <= 94472.4
 0 <= estoqueRetail_2_6_3 <= 94472.4
 0 <= estoqueRetail_2_7_4 <= 94472.4
 0 <= estoqueRetail_3_10_3 <= 94472.4
 0 <= estoqueRetail_3_11_4 <= 94472.4
 0 <= estoqueRetail_3_9_2 <= 94472.4
 0 <= estoqueRetail_4_13_2 <= 94472.4
 0 <= estoqueRetail_4_14_3 <= 94472.4
 0 <= estoqueRetail_4_15_4 <= 94472.4
 0 <= estoqueRetail_5_17_2 <= 94472.4
 0 <= estoqueRetail_5_18_3 <= 94472.4
 0 <= estoqueRetail_5_19_4 <= 94472.4
 0 <= estoqueRetail_6_21_2 <= 94472.4
 0 <= estoqueRetail_6_22_3 <= 94472.4
 0 <= estoqueRetail_6_23_4 <= 94472.4
 0 <= estoqueRetail_7_25_2 <= 94472.4
 0 <= estoqueRetail_7_26_3 <= 94472.4
 0 <= estoqueRetail_7_27_4 <= 94472.4
 0 <= estoqueRetail_8_29_2 <= 94472.4
 0 <= estoqueRetail_8_30_3 <= 94472.4
 0 <= estoqueRetail_8_31_4 <= 94472.4
 0 <= estoqueRetail_9_33_2 <= 94472.4
 0 <= estoqueRetail_9_34_3 <= 94472.4
 0 <= estoqueRetail_9_35_4 <= 94472.4
 0 <= lineaEstoque_1_10_1 <= 94472.4
 0 <= lineaEstoque_1_10_2 <= 94472.4
 0 <= lineaEstoque_1_10_3 <= 94472.4
 0 <= lineaEstoque_1_10_4 <= 94472.4
 0 <= lineaEstoque_1_1_1 <= 94472.4
 0 <= lineaEstoque_1_1_2 <= 94472.4
 0 <= lineaEstoque_1_1_3 <= 94472.4
 0 <= lineaEstoque_1_1_4 <= 94472.4
 0 <= lineaEstoque_1_2_1 <= 94472.4
 0 <= lineaEstoque_1_2_2 <= 94472.4
 0 <= lineaEstoque_1_2_3 <= 94472.4
 0 <= lineaEstoque_1_2_4 <= 94472.4
 0 <= lineaEstoque_2_3_1 <= 94472.4
 0 <= lineaEstoque_2_3_2 <= 94472.4
 0 <= lineaEstoque_2_3_3 <= 94472.4
 0 <= lineaEstoque_2_3_4 <= 94472.4
 0 <= lineaEstoque_2_4_1 <= 94472.4
 0 <= lineaEstoque_2_4_2 <= 94472.4
 0 <= lineaEstoque_2_4_3 <= 94472.4
 0 <= lineaEstoque_2_4_4 <= 94472.4
 0 <= lineaEstoque_3_4_1 <= 94472.4
 0 <= lineaEstoque_3_4_2 <= 94472.4
 0 <= lineaEstoque_3_4_3 <= 94472.4
 0 <= lineaEstoque_3_4_4 <= 94472.4
 0 <= lineaEstoque_3_5_1 <= 94472.4
 0 <= lineaEstoque_3_5_2 <= 94472.4
 0 <= lineaEstoque_3_5_3 <= 94472.4
 0 <= lineaEstoque_3_5_4 <= 94472.4
 0 <= lineaEstoque_3_6_1 <= 94472.4
 0 <= lineaEstoque_3_6_2 <= 94472.4
 0 <= lineaEstoque_3_6_3 <= 94472.4
 0 <= lineaEstoque_3_6_4 <= 94472.4
 0 <= lineaEstoque_4_6_1 <= 94472.4
 0 <= lineaEstoque_4_6_2 <= 94472.4
 0 <= lineaEstoque_4_6_3 <= 94472.4
 0 <= lineaEstoque_4_6_4 <= 94472.4
 0 <= lineaEstoque_4_7_1 <= 94472.4
 0 <= lineaEstoque_4_7_2 <= 94472.4
 0 <= lineaEstoque_4_7_3 <= 94472.4
 0 <= lineaEstoque_4_7_4 <= 94472.4
 0 <= lineaEstoque_5_7_1 <= 94472.4
 0 <= lineaEstoque_5_7_2 <= 94472.4
 0 <= lineaEstoque_5_7_3 <= 94472.4
 0 <= lineaEstoque_5_7_4 <= 94472.4
 0 <= lineaEstoque_5_8_1 <= 94472.4
 0 <= lineaEstoque_5_8_2 <= 94472.4
 0 <= lineaEstoque_5_8_3 <= 94472.4
 0 <= lineaEstoque_5_8_4 <= 94472.4
 0 <= lineaEstoque_6_9_1 <= 94472.4
 0 <= lineaEstoque_6_9_2 <= 94472.4
 0 <= lineaEstoque_6_9_3 <= 94472.4
 0 <= lineaEstoque_6_9_4 <= 94472.4
 0 <= lineaRetail_1_0_1_1 <= 285
 0 <= lineaRetail_1_1_1_2 <= 192
 0 <= lineaRetail_1_2_1_3 <= 209
 0 <= lineaRetail_1_3_1_4 <= 292
 0 <= lineaRetail_1_4_2_1 <= 185
 0 <= lineaRetail_1_5_2_2 <= 161
 0 <= lineaRetail_1_6_2_3 <= 158
 0 <= lineaRetail_1_7_2_4 <= 165
 0 <= lineaRetail_2_10_3_3 <= 22
 0 <= lineaRetail_2_11_3_4 <= 66
 0 <= lineaRetail_2_12_4_1 <= 56
 0 <= lineaRetail_2_14_4_2 <= 81
 0 <= lineaRetail_2_16_4_3 <= 86
 0 <= lineaRetail_2_18_4_4 <= 81
 0 <= lineaRetail_2_8_3_1 <= 199
 0 <= lineaRetail_2_9_3_2 <= 131
 0 <= lineaRetail_3_13_4_1 <= 56
 0 <= lineaRetail_3_15_4_2 <= 81
 0 <= lineaRetail_3_17_4_3 <= 86
 0 <= lineaRetail_3_19_4_4 <= 81
 0 <= lineaRetail_3_20_5_1 <= 98
 0 <= lineaRetail_3_21_5_2 <= 68
 0 <= lineaRetail_3_22_5_3 <= 92
 0 <= lineaRetail_3_23_5_4 <= 80
 0 <= lineaRetail_3_24_6_1 <= 251
 0 <= lineaRetail_3_26_6_2 <= 294
 0 <= lineaRetail_3_28_6_3 <= 186
 0 <= lineaRetail_3_30_6_4 <= 294
 0 <= lineaRetail_4_25_6_1 <= 251
 0 <= lineaRetail_4_27_6_2 <= 294
 0 <= lineaRetail_4_29_6_3 <= 186
 0 <= lineaRetail_4_31_6_4 <= 294
 0 <= lineaRetail_4_32_7_1 <= 156
 0 <= lineaRetail_4_34_7_2 <= 211
 0 <= lineaRetail_4_36_7_3 <= 156
 0 <= lineaRetail_4_38_7_4 <= 152
 0 <= lineaRetail_5_33_7_1 <= 156
 0 <= lineaRetail_5_35_7_2 <= 211
 0 <= lineaRetail_5_37_7_3 <= 156
 0 <= lineaRetail_5_39_7_4 <= 152
Generals
estoqueRetail_10_37_2
estoqueRetail_10_38_3
estoqueRetail_10_39_4
estoqueRetail_1_1_2
estoqueRetail_1_2_3
estoqueRetail_1_3_4
estoqueRetail_2_5_2
estoqueRetail_2_6_3
estoqueRetail_2_7_4
estoqueRetail_3_10_3
estoqueRetail_3_11_4
estoqueRetail_3_9_2
estoqueRetail_4_13_2
estoqueRetail_4_14_3
estoqueRetail_4_15_4
estoqueRetail_5_17_2
estoqueRetail_5_18_3
estoqueRetail_5_19_4
estoqueRetail_6_21_2
estoqueRetail_6_22_3
estoqueRetail_6_23_4
estoqueRetail_7_25_2
estoqueRetail_7_26_3
estoqueRetail_7_27_4
estoqueRetail_8_29_2
estoqueRetail_8_30_3
estoqueRetail_8_31_4
estoqueRetail_9_33_2
estoqueRetail_9_34_3
estoqueRetail_9_35_4
lineaEstoque_1_10_1
lineaEstoque_1_10_2
lineaEstoque_1_10_3
lineaEstoque_1_10_4
lineaEstoque_1_1_1
lineaEstoque_1_1_2
lineaEstoque_1_1_3
lineaEstoque_1_1_4
lineaEstoque_1_2_1
lineaEstoque_1_2_2
lineaEstoque_1_2_3
lineaEstoque_1_2_4
lineaEstoque_2_3_1
lineaEstoque_2_3_2
lineaEstoque_2_3_3
lineaEstoque_2_3_4
lineaEstoque_2_4_1
lineaEstoque_2_4_2
lineaEstoque_2_4_3
lineaEstoque_2_4_4
lineaEstoque_3_4_1
lineaEstoque_3_4_2
lineaEstoque_3_4_3
lineaEstoque_3_4_4
lineaEstoque_3_5_1
lineaEstoque_3_5_2
lineaEstoque_3_5_3
lineaEstoque_3_5_4
lineaEstoque_3_6_1
lineaEstoque_3_6_2
lineaEstoque_3_6_3
lineaEstoque_3_6_4
lineaEstoque_4_6_1
lineaEstoque_4_6_2
lineaEstoque_4_6_3
lineaEstoque_4_6_4
lineaEstoque_4_7_1
lineaEstoque_4_7_2
lineaEstoque_4_7_3
lineaEstoque_4_7_4
lineaEstoque_5_7_1
lineaEstoque_5_7_2
lineaEstoque_5_7_3
lineaEstoque_5_7_4
lineaEstoque_5_8_1
lineaEstoque_5_8_2
lineaEstoque_5_8_3
lineaEstoque_5_8_4
lineaEstoque_6_9_1
lineaEstoque_6_9_2
lineaEstoque_6_9_3
lineaEstoque_6_9_4
lineaRetail_1_0_1_1
lineaRetail_1_1_1_2
lineaRetail_1_2_1_3
lineaRetail_1_3_1_4
lineaRetail_1_4_2_1
lineaRetail_1_5_2_2
lineaRetail_1_6_2_3
lineaRetail_1_7_2_4
lineaRetail_2_10_3_3
lineaRetail_2_11_3_4
lineaRetail_2_12_4_1
lineaRetail_2_14_4_2
lineaRetail_2_16_4_3
lineaRetail_2_18_4_4
lineaRetail_2_8_3_1
lineaRetail_2_9_3_2
lineaRetail_3_13_4_1
lineaRetail_3_15_4_2
lineaRetail_3_17_4_3
lineaRetail_3_19_4_4
lineaRetail_3_20_5_1
lineaRetail_3_21_5_2
lineaRetail_3_22_5_3
lineaRetail_3_23_5_4
lineaRetail_3_24_6_1
lineaRetail_3_26_6_2
lineaRetail_3_28_6_3
lineaRetail_3_30_6_4
lineaRetail_4_25_6_1
lineaRetail_4_27_6_2
lineaRetail_4_29_6_3
lineaRetail_4_31_6_4
lineaRetail_4_32_7_1
lineaRetail_4_34_7_2
lineaRetail_4_36_7_3
lineaRetail_4_38_7_4
lineaRetail_5_33_7_1
lineaRetail_5_35_7_2
lineaRetail_5_37_7_3
lineaRetail_5_39_7_4
Binaries
linhe_ativacao_1
linhe_ativacao_2
linhe_ativacao_3
linhe_ativacao_4
linhe_ativacao_5
linhe_ativacao_6
satifacao_produto10_retail36_mes1
satifacao_produto10_retail37_mes2
satifacao_produto10_retail38_mes3
satifacao_produto10_retail39_mes4
satifacao_produto1_retail0_mes1
satifacao_produto1_retail1_mes2
satifacao_produto1_retail2_mes3
satifacao_produto1_retail3_mes4
satifacao_produto2_retail4_mes1
satifacao_produto2_retail5_mes2
satifacao_produto2_retail6_mes3
satifacao_produto2_retail7_mes4
satifacao_produto3_retail10_mes3
satifacao_produto3_retail11_mes4
satifacao_produto3_retail8_mes1
satifacao_produto3_retail9_mes2
satifacao_produto4_retail12_mes1
satifacao_produto4_retail13_mes2
satifacao_produto4_retail14_mes3
satifacao_produto4_retail15_mes4
satifacao_produto5_retail16_mes1
satifacao_produto5_retail17_mes2
satifacao_produto5_retail18_mes3
satifacao_produto5_retail19_mes4
satifacao_produto6_retail20_mes1
satifacao_produto6_retail21_mes2
satifacao_produto6_retail22_mes3
satifacao_produto6_retail23_mes4
satifacao_produto7_retail24_mes1
satifacao_produto7_retail25_mes2
satifacao_produto7_retail26_mes3
satifacao_produto7_retail27_mes4
satifacao_produto8_retail28_mes1
satifacao_produto8_retail29_mes2
satifacao_produto8_retail30_mes3
satifacao_produto8_retail31_mes4
satifacao_produto9_retail32_mes1
satifacao_produto9_retail33_mes2
satifacao_produto9_retail34_mes3
satifacao_produto9_retail35_mes4
End
